<number of tasks>
30

<cycle time>
30

<task times>
1 8
2 7
3 19
4 10
5 2
6 6
7 14
8 10
9 1
10 4
11 14
12 15
13 5
14 12
15 9
16 10
17 2
18 10
19 18
20 16
21 21
22 14
23 16
24 7
25 17
26 9
27 25
28 7
29 14
30 2

<precedence relations>
1,4
1,5
2,11
2,12
3,16
3,17
4,7
5,6
6,7
7,8
8,9
9,26
10,24
12,13
13,14
14,15
14,20
15,22
16,20
17,18
18,19
20,21
20,24
21,22
22,23
23,27
24,25
25,26
26,27
27,28
27,29
29,30

<setup times forward>
1,2:4
1,3:4
1,4:5
1,10:4
1,11:4
1,14:5
1,15:6
1,16:2
1,17:4
1,18:2
1,19:8
1,20:3
1,21:6
1,22:7
1,23:1
1,24:4
1,25:4
2,1:4
2,4:1
2,5:4
2,6:1
2,7:1
2,8:3
2,9:3
2,12:4
2,16:2
2,18:2
2,19:4
3,1:4
3,4:1
3,5:4
3,6:1
3,7:1
3,8:3
3,9:3
3,12:4
3,13:4
3,14:1
3,15:2
3,16:2
4,2:1
4,3:1
4,5:5
4,7:2
4,10:1
4,11:1
4,12:5
4,13:5
4,15:1
4,16:3
4,17:1
4,18:3
4,19:3
4,20:2
4,21:1
4,22:2
4,23:4
4,24:1
4,25:1
5,2:4
5,3:4
5,4:5
5,6:5
5,10:4
5,11:4
5,14:5
5,15:6
5,16:2
5,17:4
5,18:2
5,19:8
5,20:3
5,21:6
5,22:7
5,23:1
5,24:4
5,25:4
6,2:1
6,3:1
6,7:2
6,10:1
6,11:1
6,12:5
6,13:5
6,15:1
6,16:3
6,17:1
6,18:3
6,19:3
6,20:2
6,21:1
6,22:2
6,23:4
6,24:1
6,25:1
7,2:1
7,3:1
7,8:4
7,10:1
7,11:1
7,12:3
7,13:3
7,14:2
7,15:3
7,16:1
7,17:1
7,18:1
7,19:5
7,21:3
7,22:4
7,23:2
7,24:1
7,25:1
8,2:3
8,3:3
8,9:6
8,10:3
8,11:3
8,12:7
8,13:7
8,14:2
8,15:1
8,16:5
8,17:3
8,18:5
8,19:1
8,20:4
8,21:1
8,23:6
8,24:3
8,25:3
9,2:3
9,3:3
9,10:3
9,11:3
9,12:1
9,13:1
9,14:4
9,15:5
9,16:1
9,17:3
9,18:1
9,19:7
9,20:2
9,21:5
9,22:6
9,24:3
9,25:3
10,1:4
10,4:1
10,5:4
10,6:1
10,7:1
10,8:3
10,9:3
10,12:4
10,13:4
10,14:1
10,15:2
10,16:2
10,18:2
10,19:4
10,20:1
10,21:2
10,22:3
10,23:3
11,1:4
11,4:1
11,5:4
11,6:1
11,7:1
11,8:3
11,9:3
11,12:4
11,13:4
11,14:1
11,15:2
11,16:2
11,18:2
11,19:4
11,20:1
11,21:2
11,22:3
11,23:3
11,26:3
11,27:1
11,28:4
12,3:4
12,4:5
12,6:5
12,7:3
12,8:7
12,9:1
12,10:4
12,11:4
12,16:2
12,17:4
12,18:2
12,19:8
13,3:4
13,4:5
13,6:5
13,7:3
13,8:7
13,9:1
13,10:4
13,11:4
13,14:5
13,16:2
13,17:4
13,18:2
13,19:8
14,1:5
14,3:1
14,5:5
14,7:2
14,8:2
14,9:4
14,10:1
14,11:1
14,15:1
14,16:3
14,17:1
14,18:3
14,19:3
14,20:2
15,1:6
15,3:2
15,4:1
15,5:6
15,6:1
15,7:3
15,8:1
15,9:5
15,10:2
15,11:2
15,16:4
15,17:2
15,18:4
15,19:2
15,20:3
15,22:1
15,24:2
15,25:2
15,26:5
16,1:2
16,2:2
16,4:3
16,5:2
16,6:3
16,7:1
16,8:5
16,9:1
16,10:2
16,11:2
16,12:2
16,13:2
16,14:3
16,15:4
16,17:2
16,19:6
16,20:1
17,1:4
17,4:1
17,5:4
17,6:1
17,7:1
17,8:3
17,9:3
17,12:4
17,13:4
17,14:1
17,15:2
17,16:2
17,18:2
17,20:1
17,21:2
17,22:3
17,23:3
17,26:3
17,27:1
17,28:4
18,1:2
18,2:2
18,4:3
18,5:2
18,6:3
18,7:1
18,8:5
18,9:1
18,10:2
18,11:2
18,12:2
18,13:2
18,14:3
18,15:4
18,19:6
18,20:1
18,21:4
18,22:5
18,23:1
18,24:2
18,25:2
18,26:1
18,27:3
18,28:6
18,29:2
18,30:2
19,1:8
19,2:4
19,4:3
19,5:8
19,6:3
19,7:5
19,8:1
19,9:7
19,10:4
19,11:4
19,12:8
19,13:8
19,14:3
19,15:2
19,16:6
19,20:5
19,21:2
19,22:1
19,23:7
19,24:4
19,25:4
19,26:7
19,27:3
19,29:4
19,30:4
20,1:3
20,4:2
20,5:3
20,6:2
20,8:4
20,9:2
20,10:1
20,11:1
20,15:3
20,17:1
20,18:1
20,19:5
20,21:3
20,24:1
21,1:6
21,4:1
21,5:6
21,6:1
21,7:3
21,8:1
21,9:5
21,10:2
21,11:2
21,17:2
21,18:4
21,19:2
21,22:1
21,24:2
21,25:2
21,26:5
22,1:7
22,4:2
22,5:7
22,6:2
22,7:4
22,9:6
22,10:3
22,11:3
22,17:3
22,18:5
22,19:1
22,23:6
22,24:3
22,25:3
22,26:6
23,1:1
23,4:4
23,5:1
23,6:4
23,7:2
23,8:6
23,10:3
23,11:3
23,17:3
23,18:1
23,19:7
23,24:3
23,25:3
23,27:4
24,1:4
24,4:1
24,5:4
24,6:1
24,7:1
24,8:3
24,9:3
24,15:2
24,18:2
24,19:4
24,21:2
24,22:3
24,23:3
25,1:4
25,4:1
25,5:4
25,6:1
25,7:1
25,8:3
25,9:3
25,15:2
25,18:2
25,19:4
25,21:2
25,22:3
25,23:3
25,26:3
26,11:3
26,15:5
26,17:3
26,18:1
26,19:7
26,21:5
26,22:6
26,27:4
27,11:1
27,17:1
27,18:3
27,19:3
27,28:3
27,29:1
28,11:4
28,17:4
28,18:6
28,29:4
28,30:4
29,18:2
29,19:4
29,28:4
30,18:2
30,19:4
30,28:4

<setup times backward>
1,2:4
1,3:4
1,10:4
1,11:4
1,14:5
1,15:6
1,16:2
1,17:4
1,18:2
1,19:8
1,20:3
1,21:6
1,22:7
1,23:1
1,24:4
1,25:4
2,4:1
2,6:1
2,8:3
2,19:4
3,4:1
3,6:1
3,8:3
3,14:1
3,15:2
4,15:1
4,19:3
4,21:1
4,22:2
5,2:4
5,3:4
5,4:5
5,10:4
5,11:4
5,14:5
5,15:6
5,16:2
5,17:4
5,18:2
5,19:8
5,20:3
5,21:6
5,22:7
5,23:1
5,24:4
5,25:4
6,15:1
6,19:3
6,21:1
6,22:2
7,2:1
7,3:1
7,4:2
7,6:2
7,10:1
7,11:1
7,14:2
7,15:3
7,17:1
7,19:5
7,21:3
7,22:4
7,24:1
7,25:1
8,19:1
9,2:3
9,3:3
9,4:4
9,6:4
9,7:2
9,8:6
9,10:3
9,11:3
9,14:4
9,15:5
9,16:1
9,17:3
9,18:1
9,19:7
9,20:2
9,21:5
9,22:6
9,24:3
9,25:3
10,4:1
10,6:1
10,8:3
10,14:1
10,15:2
10,19:4
10,21:2
10,22:3
11,4:1
11,6:1
11,8:3
11,14:1
11,15:2
11,19:4
11,21:2
11,22:3
11,27:1
11,28:4
12,2:4
12,3:4
12,4:5
12,6:5
12,7:3
12,8:7
12,9:1
12,10:4
12,11:4
12,16:2
12,17:4
12,18:2
12,19:8
13,2:4
13,3:4
13,4:5
13,6:5
13,7:3
13,8:7
13,9:1
13,10:4
13,11:4
13,16:2
13,17:4
13,18:2
13,19:8
14,8:2
14,19:3
15,8:1
15,19:2
16,2:2
16,3:2
16,4:3
16,6:3
16,7:1
16,8:5
16,10:2
16,11:2
16,14:3
16,15:4
16,17:2
16,19:6
17,4:1
17,6:1
17,8:3
17,14:1
17,15:2
17,21:2
17,22:3
17,27:1
17,28:4
18,2:2
18,3:2
18,4:3
18,6:3
18,7:1
18,8:5
18,10:2
18,11:2
18,14:3
18,15:4
18,17:2
18,20:1
18,21:4
18,22:5
18,24:2
18,25:2
18,27:3
18,28:6
18,29:2
18,30:2
20,2:1
20,3:1
20,4:2
20,6:2
20,8:4
20,10:1
20,11:1
20,14:2
20,15:3
20,17:1
20,19:5
21,8:1
21,19:2
22,19:1
23,2:3
23,3:3
23,4:4
23,6:4
23,7:2
23,8:6
23,10:3
23,11:3
23,14:4
23,15:5
23,16:1
23,17:3
23,18:1
23,19:7
23,20:2
23,21:5
23,22:6
23,24:3
23,25:3
24,4:1
24,6:1
24,8:3
24,14:1
24,15:2
24,19:4
24,21:2
24,22:3
25,4:1
25,6:1
25,8:3
25,14:1
25,15:2
25,19:4
25,21:2
25,22:3
26,2:3
26,3:3
26,4:4
26,6:4
26,7:2
26,8:6
26,10:3
26,11:3
26,14:4
26,15:5
26,16:1
26,17:3
26,18:1
26,19:7
26,20:2
26,21:5
26,22:6
26,24:3
26,25:3
27,8:2
27,15:1
27,19:3
27,21:1
27,22:2
29,4:1
29,6:1
29,8:3
29,14:1
29,15:2
29,19:4
29,21:2
29,22:3
29,27:1
29,28:4
30,4:1
30,6:1
30,8:3
30,14:1
30,15:2
30,19:4
30,21:2
30,22:3
30,27:1
30,28:4

<end>

<optimal SALBP-1 value>
12


<rand seed>
467321153

